!   File created by the GAMESS Input Deck Generator Plugin for Avogadro
 $BASIS GBASIS=STO NGAUSS=3 $END
 $CONTRL SCFTYP=RHF RUNTYP=HESSIAN $END
 $FORCE METHOD=ANALYTIC VIBANL=.TRUE. $END

 $DATA 
Title
C1
O     8.0     0.00000     0.00000     0.00000
H     1.0     0.97000     0.00000     0.00000
H     1.0    -0.32333    -0.91045     0.08628
 $END
