 $CONTRL SCFTYP=RHF RUNTYP=HESSIAN $END
 $BASIS GBASIS=STO NGAUSS=3 $END
 $DATA
	STO3G NH3
	CNV 3
	
 N 			7.0	.0000000000	.0000000000	-.0019717070
 H 1.0	.9405679704	.0000000000	 .4239891888
 	$END





